
Gurobi 11.0.0 (win64, C++) logging started Mon Jul 28 18:40:53 2025

Set parameter TokenServer to value "141.76.38.119"
### START HEURISTIC APPROACH APPROACH ###
ProblemVariant: 1
### START PREPROCESSING ###
## Start start solution procedure ##
Start solution with 8 Vehicles and total costs 863.256 in 14.4807 s.
### END PREPROCESSING ###
Route 0 0-2-5-1-0 : weight util 0.800000 | volume util 0.527956 | infeasible with packing heuristic | feasible with CP model
Route 1 0-26-28-27-29-0 : weight util 0.344444 | volume util 0.581244 | infeasible with packing heuristic | feasible with CP model
Route 2 0-17-7-13-16-8-0 : weight util 0.222222 | volume util 0.692089 | infeasible with packing heuristic | feasible with CP model
Route 3 0-18-10-0 : weight util 0.055556 | volume util 0.496844 | infeasible with packing heuristic | feasible with CP model
Route 4 0-25-24-6-4-3-19-0 : weight util 0.461111 | volume util 0.652511 | infeasible with packing heuristic | feasible with CP model
Route 5 0-22-20-0 : weight util 0.088889 | volume util 0.327689 | infeasible with packing heuristic | feasible with CP model
Route 6 0-23-21-11-9-14-12-15-0 : weight util 0.861111 | volume util 0.741422 | infeasible with packing heuristic | feasible with CP model
